conp opti prop comp nosym

cell
5.468 5.468 5.468 90.000000 90.000000 90.000000

fractional
Th     core 0.000000 0.000000 0.00000
U     core 0.000000 0.500000 0.50000
U     core 0.500000 0.000000 0.50000
U     core 0.500000 0.500000 0.00000
O     core 0.250000 0.250000 0.250000
O     core 0.750000 0.750000 0.250000
O     core 0.750000 0.250000 0.750000
O     core 0.250000 0.750000 0.750000
O     core 0.250000 0.250000 0.750000
O     core 0.750000 0.750000 0.750000
O     core 0.750000 0.250000 0.250000
O     core 0.250000 0.750000 0.250000

library GULP_MO2.lib